
%FILE DATA:	Soccer Computational Problem for MiniZinc Models	%
%AUTHOR:	Jack Wall	%
%CONTACT:  	116397063@umail.ucc.ie			%
%LAST UPDATE:	02/19/2020, 12:16:33						%
%DESCRIPTION: 	50 games played with 40 games left				%


n=10; %number of teams

%Games to play
games=[|9,7|2,1|4,1|6,2|1,6|7,5|3,6|9,8|6,4|9,1|10,7|4,7|7,10|3,1|1,10|6,7|4,10|1,7|4,3|1,9|2,8|9,10|1,4|10,1|5,4|10,2|8,9|3,8|8,4|2,10|9,5|10,4|4,2|8,6|8,2|1,8|5,2|9,2|2,3|9,4|];

%Initial points
iPoints=[9,12,21,8,14,19,14,18,5,16];

%POSITION CONSTRAINTS
% [|teamID, operator, position|...]
% operators index:
%  1 for =  operator
%  2 for >  operator
%  3 for >= operator
%  4 for <  operator
%  5 for <= operator
positionConstraints=[|8,1,1|10,1,2|3,1,3|];